0	5	5	0
1	2	6	5
2	4	2	7
3	2	1	8
4	5	4	2
5	3	8	2
6	6	3	3
7	3	6	2
8	7	1	5
9              2              5              3
10            3              2              5
11            8              5              9
12            5              5              0